1287
709
3312
2421
1626
789
3438
1395
486
1434
1315
3404
1709
3156
925
1423
891
1182
762
2129
1893
695
1631
2054
1580
3223
582
669
2208
2227
3272
265
463
1850
1705
546
3271
1411
2271
3495
863
1156
2381
2753
1522
2994
1800
1105
2179
3039
2301
706
2867
1105
1016
599
2256
1072
2688
2599
2884
3596
2027
2147
1545
1320
1230
645
3122
1203
2822
1701
2844
1184
2916
1887
1564
1819
2644
658

36585
1116
105676
63809
39590
21427
109755
34738
9919
33235

852
26
2461
1486
922
499
2556
809
231
774

3184.8

43
2
123
75
47
25
128
41
12
39
35
150
38
124
11
57
32
48
26
85
69
2
72
85
57
126
2
10
107
87
118
7
22
86
70
9
122
57
73
131
18
8
95
90
27
144
45
51
104
121
107
26
102
39
46
22
87
41
108
122
101
135
94
64
55
26
37
31
140
46
115
53
94
34
102
84
68
51
96
29
